============================[ Problem Statistics ]=============================
|                                                                             |
|  Number of variables:        572519                                         |
|  Number of clauses:         1715261                                         |
|  Parse time:                   0.30 s                                       |
|  Eliminated clauses:          25.33 Mb                                      |
|  Simplification time:          1.83 s                                       |
|                                                                             |
============================[ Search Statistics ]==============================
| Conflicts |          ORIGINAL         |          LEARNT          | Progress |
|           |    Vars  Clauses Literals |    Limit  Clauses Lit/Cl |          |
===============================================================================
|       100 |   82482   620867  2285206 |   227651      100     34 |  0.000 % |
|       250 |   82482   620867  2285206 |   250416      250     32 |  0.000 % |
|       475 |   82482   620867  2285206 |   275457      475     24 |  0.000 % |
|       812 |   82482   620867  2285206 |   303003      812     22 |  0.000 % |
|      1318 |   82482   620867  2285206 |   333304     1318     32 |  0.000 % |
|      2077 |   82482   620867  2285206 |   366634     2077     29 |  0.000 % |
|      3216 |   82482   620867  2285206 |   403298     3216     41 |  0.000 % |
|      4924 |   82482   620867  2285206 |   443627     4924     38 |  0.000 % |
|      7486 |   82482   620867  2285206 |   487990     7486     42 |  0.000 % |
|     11330 |   82482   620867  2285206 |   536789    11330     44 |  0.000 % |
|     17096 |   82482   620867  2285206 |   590468    17096     47 |  0.000 % |
|     25745 |   82482   620867  2285206 |   649515    25745     39 |  0.000 % |
|     38719 |   82482   620867  2285206 |   714467    38719     60 |  0.000 % |
|     58180 |   82482   620867  2285206 |   785913    58180     78 |  0.000 % |
|     87372 |   82482   620867  2285206 |   864505    87372     70 |  0.000 % |
|    131161 |   82482   620867  2285206 |   950955   131161     80 |  0.000 % |
|    196845 |   82482   620867  2285206 |  1046051   196845     73 |  0.000 % |
|    295371 |   82482   620867  2285206 |  1150656   295371     67 |  0.000 % |
|    443160 |   82482   620867  2285206 |  1265722   443160     63 |  0.000 % |
|    664843 |   82482   620867  2285206 |  1392294   664843    101 |  0.000 % |
|    997368 |   82482   620867  2285206 |  1531523   997368    108 |  0.000 % |
|   1496156 |   82482   620867  2285206 |  1684676  1496156    109 |  0.000 % |
|   2244338 |   82482   620867  2285206 |  1853143   595722    110 |  0.000 % |
|   3366612 |   82482   620867  2285206 |  2038457  1717996    125 |  0.000 % |
|   5050023 |   82482   620867  2285206 |  2242303  1390643    128 |  0.000 % |
===============================================================================
restarts              : 8702
conflicts             : 5543998        (1955 /sec)
decisions             : 15503270       (0.00 % random) (5467 /sec)
propagations          : 13959284668    (4922187 /sec)
conflict literals     : 731258847      (57.65 % deleted)
Memory used           : 1752.75 MB
CPU time              : 2835.99 s

INDETERMINATE
File /Users/damy17/Documents/hw-uni/master-1-uvt/verificare-formala/benchmark/input-files/benchmarkfile27.cnf timed out after 2880 seconds.
